Route #1: 27 28 26 21 73 40 58 13 95 94 6 53
Route #2: 12 68 80 54 72 74 87 97 37 92 89
Route #3: 99 59 98 100 42 57 2 41 22 75 56 25 55 24 29 3 77 76
Route #4: 96 5 93 15 23 39 4 79 50
Route #5: 18 83 60 84 17 61 85 91 43 67 34 78 81 33 1 69
Route #6: 9 71 51 52 82 8 46 45 16 86 38 14 44
Route #7: 31 88 7 48 47 36 11 62 10 65 35 70
Route #8: 19 49 64 63 90 32 66 20 30
Cost 1203
